% Logging successfully configured
%%%mzn-stat: initTime=0.003825092
%%%mzn-stat: objective=589
%%%mzn-stat: nodes=543
%%%mzn-stat: restarts=0
%%%mzn-stat: peakDepth=127
%%%mzn-stat: solveTime=0.004289125
%%%mzn-stat: variables=292
%%%mzn-stat: propagators=195
%%%mzn-stat: failures=100
%%%mzn-stat: propagations=3927
%%%mzn-stat: nogoods=100
%%%mzn-stat: numAtomicConstraintsPropagated=0
%%%mzn-stat: allDifferentNumber1TotalHallSetSize=364
%%%mzn-stat: allDifferentNumber1NumberOfConflicts=98
%%%mzn-stat: allDifferentNumber1MaxHallSetSize=18
%%%mzn-stat: allDifferentNumber1PropagationsTotal=731
%%%mzn-stat: allDifferentNumber1PropagationsThatFoundConflict=98
%%%mzn-stat: circuitNumber2PropagationsThatFoundConflict=2
%%%mzn-stat: circuitNumber2TotalFixedEdgesAtConflict=34
%%%mzn-stat: circuitNumber2NumberOfConflicts=2
%%%mzn-stat: circuitNumber2PropagationsThatPruned=23
%%%mzn-stat: circuitNumber2PropagationsTotal=424
%%%mzn-stat: AverageConflictSize=3.37
%%%mzn-stat: NumUnitNogoodsLearned=0
%%%mzn-stat: AverageLearnedNogoodLength=3.56
%%%mzn-stat: AverageBacktrackAmount=0
%%%mzn-stat: AverageLbd=3.38
%%%mzn-stat: 2AutonomousSearchNumBackupCalled=111
%%%mzn-stat: 2AutonomousSearchNumPredicatesRemoved=0
%%%mzn-stat: 2AutonomousSearchNumCalls=112
%%%mzn-stat: 2AutonomousSearchNumPredicatesAdded=225
%%%mzn-stat: 2AutonomousSearchAverageSizeOfHeap=2.0089285714285716
%%%mzn-stat: 2AutonomousSearchNumAssignedPredicatesEncountered=225
%%%mzn-stat-end
maxleg = 589;
succ = array1d(1..20,[6, 3, 4, 9, 2, 5, 14, 11, 13, 7, 19, 8, 17, 18, 16, 10, 20, 12, 1, 15]);
% time elapsed: 0.82 s
----------
%%%mzn-stat: initTime=0.003825092
%%%mzn-stat: objective=437
%%%mzn-stat: nodes=1529
%%%mzn-stat: restarts=0
%%%mzn-stat: peakDepth=127
%%%mzn-stat: solveTime=0.03516187
%%%mzn-stat: variables=292
%%%mzn-stat: propagators=195
%%%mzn-stat: failures=777
%%%mzn-stat: propagations=15558
%%%mzn-stat: nogoods=777
%%%mzn-stat: numAtomicConstraintsPropagated=0
%%%mzn-stat: allDifferentNumber1TotalHallSetSize=7643
%%%mzn-stat: allDifferentNumber1NumberOfConflicts=769
%%%mzn-stat: allDifferentNumber1MaxHallSetSize=18
%%%mzn-stat: allDifferentNumber1PropagationsTotal=2968
%%%mzn-stat: allDifferentNumber1PropagationsThatFoundConflict=769
%%%mzn-stat: circuitNumber2PropagationsThatFoundConflict=7
%%%mzn-stat: circuitNumber2TotalFixedEdgesAtConflict=90
%%%mzn-stat: circuitNumber2NumberOfConflicts=7
%%%mzn-stat: circuitNumber2PropagationsThatPruned=70
%%%mzn-stat: circuitNumber2PropagationsTotal=1394
%%%mzn-stat: AverageConflictSize=12.877734877734877
%%%mzn-stat: NumUnitNogoodsLearned=0
%%%mzn-stat: AverageLearnedNogoodLength=12.972972972972974
%%%mzn-stat: AverageBacktrackAmount=0
%%%mzn-stat: AverageLbd=7.579150579150579
%%%mzn-stat: 2AutonomousSearchNumBackupCalled=222
%%%mzn-stat: 2AutonomousSearchNumPredicatesRemoved=0
%%%mzn-stat: 2AutonomousSearchNumCalls=224
%%%mzn-stat: 2AutonomousSearchNumPredicatesAdded=613
%%%mzn-stat: 2AutonomousSearchAverageSizeOfHeap=3.111607142857143
%%%mzn-stat: 2AutonomousSearchNumAssignedPredicatesEncountered=697
%%%mzn-stat-end
maxleg = 437;
succ = array1d(1..20,[6, 3, 4, 11, 12, 5, 9, 1, 13, 2, 19, 18, 17, 7, 16, 10, 20, 14, 8, 15]);
% time elapsed: 0.85 s
----------
%%%mzn-stat: initTime=0.003825092
%%%mzn-stat: objective=420
%%%mzn-stat: nodes=1690
%%%mzn-stat: restarts=0
%%%mzn-stat: peakDepth=127
%%%mzn-stat: solveTime=0.037115632
%%%mzn-stat: variables=292
%%%mzn-stat: propagators=195
%%%mzn-stat: failures=806
%%%mzn-stat: propagations=16779
%%%mzn-stat: nogoods=806
%%%mzn-stat: numAtomicConstraintsPropagated=0
%%%mzn-stat: allDifferentNumber1TotalHallSetSize=7755
%%%mzn-stat: allDifferentNumber1NumberOfConflicts=797
%%%mzn-stat: allDifferentNumber1MaxHallSetSize=18
%%%mzn-stat: allDifferentNumber1PropagationsTotal=3131
%%%mzn-stat: allDifferentNumber1PropagationsThatFoundConflict=797
%%%mzn-stat: circuitNumber2PropagationsThatFoundConflict=8
%%%mzn-stat: circuitNumber2TotalFixedEdgesAtConflict=103
%%%mzn-stat: circuitNumber2NumberOfConflicts=8
%%%mzn-stat: circuitNumber2PropagationsThatPruned=96
%%%mzn-stat: circuitNumber2PropagationsTotal=1480
%%%mzn-stat: AverageConflictSize=12.599255583126551
%%%mzn-stat: NumUnitNogoodsLearned=0
%%%mzn-stat: AverageLearnedNogoodLength=12.797766749379653
%%%mzn-stat: AverageBacktrackAmount=0
%%%mzn-stat: AverageLbd=7.5310173697270475
%%%mzn-stat: 2AutonomousSearchNumBackupCalled=323
%%%mzn-stat: 2AutonomousSearchNumPredicatesRemoved=0
%%%mzn-stat: 2AutonomousSearchNumCalls=326
%%%mzn-stat: 2AutonomousSearchNumPredicatesAdded=853
%%%mzn-stat: 2AutonomousSearchAverageSizeOfHeap=3.6165644171779143
%%%mzn-stat: 2AutonomousSearchNumAssignedPredicatesEncountered=1179
%%%mzn-stat-end
maxleg = 420;
succ = array1d(1..20,[6, 3, 4, 11, 14, 12, 9, 1, 13, 2, 19, 18, 17, 7, 16, 10, 20, 5, 8, 15]);
% time elapsed: 0.85 s
----------
%%%mzn-stat: initTime=0.003825092
%%%mzn-stat: objective=408
%%%mzn-stat: nodes=1814
%%%mzn-stat: restarts=0
%%%mzn-stat: peakDepth=127
%%%mzn-stat: solveTime=0.037717187
%%%mzn-stat: variables=292
%%%mzn-stat: propagators=195
%%%mzn-stat: failures=813
%%%mzn-stat: propagations=17324
%%%mzn-stat: nogoods=813
%%%mzn-stat: numAtomicConstraintsPropagated=0
%%%mzn-stat: allDifferentNumber1TotalHallSetSize=7772
%%%mzn-stat: allDifferentNumber1NumberOfConflicts=802
%%%mzn-stat: allDifferentNumber1MaxHallSetSize=18
%%%mzn-stat: allDifferentNumber1PropagationsTotal=3174
%%%mzn-stat: allDifferentNumber1PropagationsThatFoundConflict=802
%%%mzn-stat: circuitNumber2PropagationsThatFoundConflict=10
%%%mzn-stat: circuitNumber2TotalFixedEdgesAtConflict=129
%%%mzn-stat: circuitNumber2NumberOfConflicts=10
%%%mzn-stat: circuitNumber2PropagationsThatPruned=100
%%%mzn-stat: circuitNumber2PropagationsTotal=1508
%%%mzn-stat: AverageConflictSize=12.559655596555965
%%%mzn-stat: NumUnitNogoodsLearned=0
%%%mzn-stat: AverageLearnedNogoodLength=12.777367773677737
%%%mzn-stat: AverageBacktrackAmount=0
%%%mzn-stat: AverageLbd=7.528905289052891
%%%mzn-stat: 2AutonomousSearchNumBackupCalled=426
%%%mzn-stat: 2AutonomousSearchNumPredicatesRemoved=0
%%%mzn-stat: 2AutonomousSearchNumCalls=430
%%%mzn-stat: 2AutonomousSearchNumPredicatesAdded=981
%%%mzn-stat: 2AutonomousSearchAverageSizeOfHeap=3.8627906976744186
%%%mzn-stat: 2AutonomousSearchNumAssignedPredicatesEncountered=1661
%%%mzn-stat-end
maxleg = 408;
succ = array1d(1..20,[6, 3, 4, 11, 18, 5, 9, 1, 13, 2, 19, 14, 17, 7, 16, 10, 20, 12, 8, 15]);
% time elapsed: 0.85 s
----------
%%%mzn-stat: initTime=0.003825092
%%%mzn-stat: objective=390
%%%mzn-stat: nodes=1920
%%%mzn-stat: restarts=0
%%%mzn-stat: peakDepth=127
%%%mzn-stat: solveTime=0.03812144
%%%mzn-stat: variables=292
%%%mzn-stat: propagators=195
%%%mzn-stat: failures=816
%%%mzn-stat: propagations=17755
%%%mzn-stat: nogoods=816
%%%mzn-stat: numAtomicConstraintsPropagated=0
%%%mzn-stat: allDifferentNumber1TotalHallSetSize=7782
%%%mzn-stat: allDifferentNumber1NumberOfConflicts=805
%%%mzn-stat: allDifferentNumber1MaxHallSetSize=18
%%%mzn-stat: allDifferentNumber1PropagationsTotal=3204
%%%mzn-stat: allDifferentNumber1PropagationsThatFoundConflict=805
%%%mzn-stat: circuitNumber2PropagationsThatFoundConflict=10
%%%mzn-stat: circuitNumber2TotalFixedEdgesAtConflict=129
%%%mzn-stat: circuitNumber2NumberOfConflicts=10
%%%mzn-stat: circuitNumber2PropagationsThatPruned=102
%%%mzn-stat: circuitNumber2PropagationsTotal=1528
%%%mzn-stat: AverageConflictSize=12.536764705882353
%%%mzn-stat: NumUnitNogoodsLearned=0
%%%mzn-stat: AverageLearnedNogoodLength=12.775735294117647
%%%mzn-stat: AverageBacktrackAmount=0
%%%mzn-stat: AverageLbd=7.5306372549019605
%%%mzn-stat: 2AutonomousSearchNumBackupCalled=517
%%%mzn-stat: 2AutonomousSearchNumPredicatesRemoved=0
%%%mzn-stat: 2AutonomousSearchNumCalls=522
%%%mzn-stat: 2AutonomousSearchNumPredicatesAdded=1031
%%%mzn-stat: 2AutonomousSearchAverageSizeOfHeap=4.105363984674329
%%%mzn-stat: 2AutonomousSearchNumAssignedPredicatesEncountered=2143
%%%mzn-stat-end
maxleg = 390;
succ = array1d(1..20,[6, 3, 4, 11, 18, 5, 9, 19, 13, 2, 8, 14, 17, 7, 16, 10, 20, 12, 1, 15]);
% time elapsed: 0.85 s
----------
%%%mzn-stat: initTime=0.003825092
%%%mzn-stat: objective=376
%%%mzn-stat: nodes=2144
%%%mzn-stat: restarts=0
%%%mzn-stat: peakDepth=127
%%%mzn-stat: solveTime=0.041439487
%%%mzn-stat: variables=292
%%%mzn-stat: propagators=195
%%%mzn-stat: failures=883
%%%mzn-stat: propagations=20133
%%%mzn-stat: nogoods=883
%%%mzn-stat: numAtomicConstraintsPropagated=0
%%%mzn-stat: allDifferentNumber1TotalHallSetSize=8209
%%%mzn-stat: allDifferentNumber1NumberOfConflicts=869
%%%mzn-stat: allDifferentNumber1MaxHallSetSize=18
%%%mzn-stat: allDifferentNumber1PropagationsTotal=3510
%%%mzn-stat: allDifferentNumber1PropagationsThatFoundConflict=869
%%%mzn-stat: circuitNumber2PropagationsThatFoundConflict=13
%%%mzn-stat: circuitNumber2TotalFixedEdgesAtConflict=166
%%%mzn-stat: circuitNumber2NumberOfConflicts=13
%%%mzn-stat: circuitNumber2PropagationsThatPruned=118
%%%mzn-stat: circuitNumber2PropagationsTotal=1688
%%%mzn-stat: AverageConflictSize=12.195922989807475
%%%mzn-stat: NumUnitNogoodsLearned=0
%%%mzn-stat: AverageLearnedNogoodLength=12.451868629671575
%%%mzn-stat: AverageBacktrackAmount=0
%%%mzn-stat: AverageLbd=7.339750849377124
%%%mzn-stat: 2AutonomousSearchNumBackupCalled=602
%%%mzn-stat: 2AutonomousSearchNumPredicatesRemoved=0
%%%mzn-stat: 2AutonomousSearchNumCalls=608
%%%mzn-stat: 2AutonomousSearchNumPredicatesAdded=1396
%%%mzn-stat: 2AutonomousSearchAverageSizeOfHeap=4.453947368421052
%%%mzn-stat: 2AutonomousSearchNumAssignedPredicatesEncountered=2708
%%%mzn-stat-end
maxleg = 376;
succ = array1d(1..20,[6, 3, 7, 11, 2, 12, 9, 19, 10, 16, 8, 14, 4, 18, 17, 15, 20, 5, 1, 13]);
% time elapsed: 0.85 s
----------
==========
% time elapsed: 0.85 s
%%%mzn-stat: initTime=0.003825092
%%%mzn-stat: objective=376
%%%mzn-stat: nodes=2144
%%%mzn-stat: restarts=0
%%%mzn-stat: peakDepth=127
%%%mzn-stat: solveTime=0.041516575
%%%mzn-stat: variables=292
%%%mzn-stat: propagators=195
%%%mzn-stat: failures=884
%%%mzn-stat: propagations=20197
%%%mzn-stat: nogoods=884
%%%mzn-stat: numAtomicConstraintsPropagated=0
%%%mzn-stat: allDifferentNumber1TotalHallSetSize=8229
%%%mzn-stat: allDifferentNumber1NumberOfConflicts=870
%%%mzn-stat: allDifferentNumber1MaxHallSetSize=20
%%%mzn-stat: allDifferentNumber1PropagationsTotal=3512
%%%mzn-stat: allDifferentNumber1PropagationsThatFoundConflict=870
%%%mzn-stat: circuitNumber2PropagationsThatFoundConflict=13
%%%mzn-stat: circuitNumber2TotalFixedEdgesAtConflict=166
%%%mzn-stat: circuitNumber2NumberOfConflicts=13
%%%mzn-stat: circuitNumber2PropagationsThatPruned=118
%%%mzn-stat: circuitNumber2PropagationsTotal=1689
%%%mzn-stat: AverageConflictSize=12.19343891402715
%%%mzn-stat: NumUnitNogoodsLearned=1
%%%mzn-stat: AverageLearnedNogoodLength=12.438914027149321
%%%mzn-stat: AverageBacktrackAmount=0
%%%mzn-stat: AverageLbd=7.332579185520362
%%%mzn-stat: 2AutonomousSearchNumBackupCalled=602
%%%mzn-stat: 2AutonomousSearchNumPredicatesRemoved=0
%%%mzn-stat: 2AutonomousSearchNumCalls=608
%%%mzn-stat: 2AutonomousSearchNumPredicatesAdded=1475
%%%mzn-stat: 2AutonomousSearchAverageSizeOfHeap=4.453947368421052
%%%mzn-stat: 2AutonomousSearchNumAssignedPredicatesEncountered=2708
%%%mzn-stat-end
